Read MPS format model from file dat/rmp/4node_2048_10.mps
Reading time = 0.06 seconds
: 2108 rows, 6286 columns, 188896 nonzeros
Gurobi Optimizer version 9.0.0 build v9.0.0rc2 (linux64)
Optimize a model with 2108 rows, 6286 columns and 188896 nonzeros
Model fingerprint: 0x68abc37c
Coefficient statistics:
  Matrix range     [3e-03, 2e+01]
  Objective range  [1e+01, 1e+04]
  Bounds range     [0e+00, 0e+00]
  RHS range        [1e+00, 8e+01]
Ordering time: 0.00s

Barrier statistics:
 AA' NZ     : 9.092e+04
 Factor NZ  : 1.136e+05 (roughly 4 MBytes of memory)
 Factor Ops : 7.122e+06 (less than 1 second per iteration)
 Threads    : 1

                  Objective                Residual
Iter       Primal          Dual         Primal    Dual     Compl     Time
   0   3.43891465e+07  0.00000000e+00  1.51e+04 4.80e+02  9.05e+04     0s
   1   2.84815853e+06 -1.74465141e+07  1.19e+03 3.47e+03  1.05e+04     0s
   2   8.71216952e+05 -1.25609820e+07  3.48e+02 2.34e+03  4.59e+03     0s
   3   2.22450874e+05 -8.59667449e+06  5.96e+01 1.34e+03  2.25e+03     0s
   4   9.01804937e+04 -1.36437440e+06  9.87e-01 1.48e+02  3.15e+02     0s
   5   6.31442009e+04 -5.89301375e+04  9.16e-10 9.05e+00  2.40e+01     0s
   6   1.64387229e+04 -3.85198018e+04  3.68e-10 6.00e+00  1.12e+01     0s
   7   8.65096318e+03 -2.11290383e+04  2.12e-10 3.14e+00  6.04e+00     0s
   8   6.18583295e+02 -3.92172966e+03  1.54e-10 2.12e-01  8.02e-01     0s
   9   3.32779865e+01 -2.42089620e+03  7.63e-10 7.07e-02  4.16e-01     0s
  10  -1.72878796e+02 -1.56138075e+03  1.10e-09 2.00e-02  2.29e-01     0s
  11  -2.44833502e+02 -5.14616191e+02  3.18e-09 2.92e-03  4.40e-02     0s
  12  -3.06365199e+02 -4.11027904e+02  4.71e-09 3.04e-04  1.68e-02     0s
  13  -3.26996135e+02 -3.80552877e+02  3.07e-08 9.53e-05  8.57e-03     0s
  14  -3.49771274e+02 -3.66290389e+02  8.46e-08 1.22e-05  2.63e-03     0s
  15  -3.52332632e+02 -3.65612837e+02  9.42e-08 1.04e-05  2.12e-03     0s
  16  -3.61778279e+02 -3.64483240e+02  9.63e-08 1.20e-06  4.31e-04     0s
  17  -3.62489833e+02 -3.63644192e+02  7.10e-07 8.73e-08  1.84e-04     0s
  18  -3.62818717e+02 -3.63350479e+02  3.83e-07 7.80e-09  8.46e-05     0s
  19  -3.62818702e+02 -3.63340243e+02  8.64e-07 7.47e-09  8.30e-05     0s
  20  -3.62828697e+02 -3.63313254e+02  8.15e-07 1.41e-08  7.71e-05     0s
  21  -3.62828730e+02 -3.63297715e+02  6.99e-07 2.10e-09  7.46e-05     0s
  22  -3.62828719e+02 -3.63297712e+02  9.92e-07 2.10e-09  7.46e-05     0s
  23  -3.62828878e+02 -3.63291717e+02  8.97e-07 1.39e-09  7.36e-05     0s
  24  -3.62829232e+02 -3.63280778e+02  1.15e-06 1.00e-09  7.18e-05     0s
  25  -3.62829593e+02 -3.63280513e+02  6.49e-07 9.84e-10  7.17e-05     0s
  26  -3.62829583e+02 -3.63280521e+02  4.67e-07 9.84e-10  7.17e-05     0s
  27  -3.62829655e+02 -3.63279925e+02  1.17e-06 8.74e-10  7.16e-05     0s
  28  -3.62830054e+02 -3.63279055e+02  1.44e-06 1.31e-09  7.14e-05     0s
  29  -3.62830416e+02 -3.63278103e+02  1.14e-06 1.16e-09  7.12e-05     0s
  30  -3.62830642e+02 -3.63277939e+02  4.90e-07 1.14e-09  7.12e-05     0s
  31  -3.62830633e+02 -3.63277950e+02  5.29e-07 1.14e-09  7.12e-05     0s
  32  -3.62830646e+02 -3.63277837e+02  5.13e-07 1.13e-09  7.11e-05     0s
  33  -3.62830829e+02 -3.63281684e+02  5.03e-07 8.49e-10  7.17e-05     0s
  34  -3.62831115e+02 -3.63275279e+02  6.28e-07 2.82e-10  7.07e-05     0s
  35  -3.62831449e+02 -3.63272978e+02  9.26e-07 2.17e-10  7.02e-05     0s
  36  -3.62831609e+02 -3.63270707e+02  1.35e-06 9.33e-11  6.98e-05     0s
  37  -3.62831706e+02 -3.63269206e+02  1.46e-06 4.69e-11  6.96e-05     1s
  38  -3.62832038e+02 -3.63268903e+02  2.72e-06 1.98e-10  6.95e-05     1s
  39  -3.62832107e+02 -3.63268227e+02  4.82e-06 6.69e-11  6.94e-05     1s
  40  -3.62832482e+02 -3.63267431e+02  7.33e-06 2.91e-11  6.92e-05     1s
  41  -3.62832742e+02 -3.63266505e+02  7.62e-06 2.91e-11  6.90e-05     1s
  42  -3.62834282e+02 -3.63266682e+02  9.41e-06 9.22e-11  6.88e-05     1s
  43  -3.62834975e+02 -3.63266487e+02  1.04e-05 4.24e-11  6.87e-05     1s
  44  -3.62835624e+02 -3.63266346e+02  1.08e-05 3.69e-11  6.86e-05     1s
  45  -3.62836485e+02 -3.63265858e+02  1.92e-05 2.91e-11  6.84e-05     1s
  46  -3.62836778e+02 -3.63265629e+02  1.68e-05 2.91e-11  6.83e-05     1s
  47  -3.62838383e+02 -3.63266159e+02  1.76e-05 2.91e-11  6.82e-05     1s
  48  -3.62839204e+02 -3.63265123e+02  2.40e-05 3.58e-11  6.79e-05     1s
  49  -3.62843606e+02 -3.63264835e+02  2.72e-05 2.91e-11  6.72e-05     1s
  50  -3.62844075e+02 -3.63264779e+02  2.18e-05 2.91e-11  6.72e-05     1s
  51  -3.62847262e+02 -3.63264786e+02  2.70e-05 5.28e-11  6.68e-05     1s

Barrier performed 51 iterations in 0.66 seconds
Sub-optimal termination - objective -3.62818717e+02

Solve time: 0.658727433
Barrier iterations: 51
